unknown
(model
; cardinality of BoundSet is 2
(declare-sort BoundSet 0)
; rep: @uc_BoundSet_0
; rep: @uc_BoundSet_1
(declare-sort UnboundSet 0)
(define-fun IsEnjoyed ((BOUND_VARIABLE_395 BoundSet) (BOUND_VARIABLE_396 BoundSet)) Bool true)
(define-fun IsOutdoors ((BOUND_VARIABLE_405 BoundSet)) Bool false)
)
unsat
(error "Cannot get the current model unless immediately preceded by SAT/INVALID or UNKNOWN response.")
